RandInst10
10000
40
681 32
599 12
1088 16
1360 5
1114 24
2415 1
594 25
1028 12
515 7
1619 34
2078 24
1451 28
1913 39
842 31
1602 11
1699 11
2359 17
2312 13
637 29
1802 9
1913 23
2226 8
2296 37
623 16
1013 6
504 15
1272 31
2351 23
2445 3
1672 9
2099 10
2387 38
1282 33
1518 18
1541 12
2171 17
1592 27
1132 1
821 26
756 11
